c Geometric graph with bandwidth and node weights
c Parameters: Vertices 50, Max node weight 10, Max edge weight 10
c      Maximum squared distance for edge (in 10,000 by 10,000 square) 10000000
c not original file ! Modified for weighted vertex coloring problem
p edge 50 238
e 1 6
e 1 16
e 1 18
e 1 19
e 1 24
e 1 25
e 1 33
e 1 36
e 1 39
e 1 41
e 1 44
e 1 48
e 2 5
e 2 22
e 2 28
e 2 31
e 2 35
e 2 43
e 2 45
e 3 4
e 3 7
e 3 9
e 3 15
e 3 20
e 3 26
e 3 34
e 3 46
e 3 47
e 3 50
e 4 7
e 4 8
e 4 9
e 4 15
e 4 20
e 4 22
e 4 26
e 4 32
e 4 34
e 4 46
e 4 47
e 4 50
e 5 10
e 5 14
e 5 28
e 5 31
e 5 35
e 5 40
e 5 45
e 6 16
e 6 18
e 6 19
e 6 24
e 6 33
e 6 36
e 6 39
e 6 41
e 6 44
e 6 48
e 7 8
e 7 9
e 7 11
e 7 15
e 7 22
e 7 26
e 7 30
e 7 34
e 7 43
e 7 46
e 7 47
e 7 50
e 8 9
e 8 11
e 8 12
e 8 20
e 8 22
e 8 27
e 8 29
e 8 30
e 8 32
e 8 34
e 8 42
e 8 46
e 8 47
e 9 11
e 9 15
e 9 20
e 9 22
e 9 26
e 9 27
e 9 32
e 9 34
e 9 46
e 9 47
e 9 50
e 10 14
e 10 28
e 10 35
e 10 40
e 10 45
e 11 12
e 11 20
e 11 22
e 11 27
e 11 29
e 11 30
e 11 32
e 11 34
e 11 42
e 11 46
e 11 47
e 12 29
e 12 30
e 12 39
e 12 42
e 13 21
e 13 29
e 13 37
e 13 38
e 13 41
e 13 49
e 14 28
e 14 35
e 14 40
e 14 45
e 15 26
e 15 34
e 15 46
e 15 50
e 16 17
e 16 18
e 16 23
e 16 25
e 16 33
e 16 44
e 16 48
e 17 23
e 17 25
e 17 28
e 17 35
e 17 40
e 18 19
e 18 24
e 18 25
e 18 33
e 18 36
e 18 44
e 18 48
e 19 24
e 19 33
e 19 36
e 19 39
e 19 41
e 19 44
e 19 48
e 20 27
e 20 32
e 20 46
e 21 27
e 21 37
e 21 38
e 21 49
e 22 30
e 22 31
e 22 32
e 22 34
e 22 42
e 22 43
e 22 46
e 22 47
e 23 25
e 23 35
e 23 40
e 23 44
e 24 33
e 24 36
e 24 39
e 24 41
e 24 44
e 24 48
e 25 40
e 25 44
e 26 34
e 26 46
e 26 47
e 26 50
e 27 29
e 27 32
e 27 46
e 28 31
e 28 35
e 28 40
e 28 43
e 28 45
e 29 30
e 29 39
e 29 42
e 30 31
e 30 32
e 30 34
e 30 42
e 30 46
e 30 47
e 31 35
e 31 43
e 31 45
e 32 34
e 32 46
e 32 47
e 33 36
e 33 39
e 33 41
e 33 44
e 33 48
e 34 43
e 34 46
e 34 47
e 34 50
e 35 40
e 35 45
e 36 39
e 36 41
e 36 44
e 36 48
e 37 38
e 37 49
e 38 49
e 39 41
e 39 44
e 39 48
e 41 48
e 41 49
e 42 47
e 43 45
e 43 47
e 44 48
e 46 47
e 46 50
e 47 50
